120
21,13
22,15
24,7
25,5
27,9
29,9
30,3
31,15
32,18
33,17
34,4
35,17
38,20
39,9
42,4
44,19
45,9
46,12
47,15
48,3
49,20
50,14
51,15
52,6
53,4
54,7
55,5
56,19
57,19
59,6
60,3
61,7
63,20
65,5
66,10
67,17
